p cnf 18 24
16 4 -3 -17 0
13 1 -10 -5 0
-6 7 -8 -16 17 -10 5 -12 4 15 0
11 -15 5 -6 0
17 5 -16 0
-9 4 -1 5 -10 7 18 8 -2 0
18 -5 0
1 -17 0
15 13 10 -9 0
-5 12 0
12 -8 -11 4 6 9 -16 15 17 5 0
-18 5 13 -15 0
-15 2 -16 0
2 13 0
-11 4 7 0
9 2 -7 16 0
-16 4 -15 3 13 14 -7 9 -6 12 -18 10 -11 0
7 15 -6 3 -2 5 -8 -12 13 -10 -9 -11 1 -16 0
15 -17 0
18 -13 -14 3 -8 -16 4 -9 7 -15 6 10 5 0
15 -17 9 0
-4 -8 0
-3 11 -13 12 16 -1 0
17 11 3 -18 4 9 0
